40 
300 
19.1 24.3 0 0
18.2 24 0 -121
12.6 24.9 20 -20
14.4 28 20 -20
16.9 28.1 -20 -91
20.7 28.2 20 -27
12.5 26.6 20 -18
21.8 27.3 20 -27
12.5 22.6 -20 -113
22.5 17 -30 -126
19.9 15 30 -29
14.9 15.1 30 -13
11.5 18.6 -30 -98
12.4 29.8 30 -18
17.8 28.1 -30 -123
9.1 29.8 40 -22
10 32.6 40 -21
13.9 33.1 40 -27
19.95 10.3 40 -15
15.2 8 40 -10
14.7 31.2 50 -24
7.4 36.5 50 -17
21 25.5 -50 -116
18 25.3 10 -24
19.5 24.7 10 -14
21.4 21.8 -10 -71
16 21.4 10 -21
18.65 26.2 -10 -114
17.9 28.9 10 -23
14.3 19.9 20 -13
17 19 20 -12
10.8 21 -20 -108
15.7 23.7 -10 -92
